NAME: ACTUAL_TOURS/amz2075
TYPE: TOUR
COMMENT: RouteID_dc8f0cb6-2b31-46e2-b59e-e1cd89873638
DIMENSION: 200
TOUR_SECTION
187
10
155
199
15
79
159
46
87
7
171
35
9
92
190
33
65
2
178
76
27
47
166
145
34
110
66
193
183
185
62
103
5
119
130
42
122
111
30
1
184
96
24
107
94
118
77
91
48
157
69
26
180
128
78
71
196
152
55
60
179
182
160
101
93
134
147
4
13
58
105
16
165
23
68
45
177
136
8
44
167
186
112
123
135
188
108
74
176
36
37
189
142
61
84
161
73
57
20
115
81
149
52
116
114
129
172
22
89
168
126
174
141
120
131
11
29
139
150
154
31
164
98
121
195
194
148
82
40
28
41
117
106
59
50
146
200
191
197
63
88
85
32
95
127
153
43
156
86
67
53
132
175
39
140
100
158
170
113
102
99
198
6
137
51
90
163
56
70
162
18
19
83
151
75
54
144
49
133
80
12
64
125
25
3
21
169
17
143
104
173
72
97
109
38
124
14
138
181
192
-1
EOF
